solution status: optimal solution found
objective value:                                   22
$_79_y                                             21 	(obj:0)
$_79_z                                             15 	(obj:0)
$_54_y                                             14 	(obj:0)
$_54_z                                             15 	(obj:0)
$_106_y                                            19 	(obj:0)
$_106_z                                            18 	(obj:0)
$_140_y                                            18 	(obj:0)
$_140_z                                            21 	(obj:0)
$_13_y                                             14 	(obj:0)
$_13_z                                             24 	(obj:0)
$_80_y                                             21 	(obj:0)
$_80_z                                             23 	(obj:0)
$_133_y                                            20 	(obj:0)
$_133_z                                            23 	(obj:0)
$_28_y                                             23 	(obj:0)
$_28_z                                             15 	(obj:0)
$_166_y                                            12 	(obj:0)
$_166_z                                            16 	(obj:0)
$_61_y                                             24 	(obj:0)
$_61_z                                             14 	(obj:0)
$_141_y                                            18 	(obj:0)
$_141_z                                            20 	(obj:0)
$_184_y                                            19 	(obj:0)
$_184_z                                            19 	(obj:0)
$_85_y                                             20 	(obj:0)
$_85_z                                             19 	(obj:0)
$_50_y                                             23 	(obj:0)
$_50_z                                             16 	(obj:0)
$_157_y                                            15 	(obj:0)
$_157_z                                            20 	(obj:0)
$_58_y                                             22 	(obj:0)
$_58_z                                             20 	(obj:0)
$_150_y                                            16 	(obj:0)
$_150_z                                            20 	(obj:0)
$_16_y                                             18 	(obj:0)
$_16_z                                             24 	(obj:0)
$_39_y                                             24 	(obj:0)
$_39_z                                             13 	(obj:0)
$_81_y                                             18 	(obj:0)
$_81_z                                             18 	(obj:0)
$_36_y                                             14 	(obj:0)
$_36_z                                             20 	(obj:0)
$_180_y                                            13 	(obj:0)
$_180_z                                            14 	(obj:0)
$_32_y                                             24 	(obj:0)
$_32_z                                             19 	(obj:0)
$_51_y                                             23 	(obj:0)
$_51_z                                             17 	(obj:0)
$_144_y                                            18 	(obj:0)
$_144_z                                            22 	(obj:0)
$_102_y                                            19 	(obj:0)
$_102_z                                            20 	(obj:0)
$_29_y                                             23 	(obj:0)
$_29_z                                             14 	(obj:0)
$_65_y                                             23 	(obj:0)
$_65_z                                             24 	(obj:0)
$_101_y                                            13 	(obj:0)
$_101_z                                            16 	(obj:0)
$_176_y                                            13 	(obj:0)
$_176_z                                            15 	(obj:0)
$_116_y                                            20 	(obj:0)
$_116_z                                            15 	(obj:0)
$_173_y                                            17 	(obj:0)
$_173_z                                            20 	(obj:0)
$_14_y                                             21 	(obj:0)
$_14_z                                             16 	(obj:0)
$_15_y                                             21 	(obj:0)
$_15_z                                             22 	(obj:0)
$_11_y                                             20 	(obj:0)
$_11_z                                             13 	(obj:0)
$_97_y                                             19 	(obj:0)
$_97_z                                             15 	(obj:0)
$_160_y                                            14 	(obj:0)
$_160_z                                            18 	(obj:0)
$_43_y                                             14 	(obj:0)
$_43_z                                             19 	(obj:0)
x84                                                 1 	(obj:1)
x85                                                 1 	(obj:1)
x86                                                 1 	(obj:1)
x101                                                1 	(obj:1)
x102                                                2 	(obj:1)
x103                                                1 	(obj:1)
x105                                                1 	(obj:1)
x116                                                2 	(obj:1)
x137                                                2 	(obj:1)
x138                                                1 	(obj:1)
x139                                                1 	(obj:1)
x157                                                2 	(obj:1)
x167                                                1 	(obj:1)
x168                                                2 	(obj:1)
x169                                                1 	(obj:1)
x170                                                2 	(obj:1)
